    1  5.63  4.23  4.93  1.40  4.77 -0.06 -0.10 -0.08  0.09  0.19  0.30  0.33  0.37  0.37  0.32  0.17  0.04
    2  5.62  4.24  4.93  1.38  4.76 -0.08 -0.12 -0.09  0.09  0.20  0.32  0.34  0.38  0.40  0.34  0.17  0.04
    3  5.60  4.23  4.91  1.37  4.74 -0.06 -0.10 -0.09  0.09  0.22  0.32  0.35  0.40  0.41  0.35  0.19  0.06
    4  5.56  4.15  4.86  1.41  4.70 -0.07 -0.11 -0.09  0.06  0.20  0.30  0.32  0.36  0.38  0.33  0.17  0.05
    5  5.51  4.12  4.82  1.39  4.61 -0.08 -0.09 -0.05  0.11  0.25  0.36  0.38  0.43  0.46  0.39  0.25  0.12
    6  5.44  3.93  4.68  1.51  4.49 -0.07 -0.09 -0.05  0.11  0.24  0.36  0.36  0.42  0.44  0.38  0.20  0.05
    7  5.55  3.94  4.74  1.61  4.56 -0.06 -0.09 -0.06  0.10  0.23  0.36  0.38  0.41  0.41  0.35  0.18  0.03
    8  5.53  3.99  4.76  1.54  4.57 -0.09 -0.12 -0.09  0.07  0.21  0.35  0.39  0.43  0.44  0.38  0.23  0.09
    9  5.51  3.94  4.73  1.57  4.50 -0.05 -0.11 -0.09  0.08  0.25  0.40  0.43  0.49  0.51  0.46  0.28  0.13
   10  5.48  3.88  4.68  1.60  4.44 -0.03 -0.09 -0.06  0.10  0.27  0.41  0.44  0.49  0.50  0.45  0.26  0.12
   11  5.54  3.89  4.72  1.65  4.47 -0.02 -0.09 -0.06  0.12  0.28  0.43  0.46  0.50  0.52  0.46  0.27  0.12
   12  5.53  3.84  4.68  1.69  4.40 -0.05 -0.07 -0.03  0.14  0.32  0.47  0.51  0.57  0.58  0.51  0.30  0.16
   13  5.39  3.63  4.51  1.76  4.25 -0.09 -0.11 -0.07  0.11  0.30  0.45  0.50  0.56  0.57  0.49  0.29  0.13
   14  5.23  3.42  4.32  1.81  4.07 -0.12 -0.15 -0.10  0.07  0.27  0.43  0.50  0.57  0.58  0.51  0.31  0.15
   15  5.11  3.20  4.16  1.91  3.92 -0.10 -0.14 -0.11  0.06  0.26  0.43  0.48  0.56  0.57  0.48  0.28  0.10
   16  5.13  3.17  4.15  1.96  3.91 -0.09 -0.12 -0.09  0.07  0.28  0.45  0.50  0.57  0.56  0.48  0.27  0.07
   17  5.15  3.18  4.16  1.97  3.92 -0.11 -0.12 -0.12  0.07  0.27  0.44  0.51  0.57  0.58  0.48  0.27  0.07
   18  5.15  3.14  4.14  2.01  3.89 -0.12 -0.13 -0.12  0.06  0.27  0.45  0.53  0.59  0.61  0.51  0.29  0.09
   19  5.15  3.08  4.11  2.07  3.88 -0.12 -0.12 -0.12  0.05  0.24  0.42  0.53  0.59  0.60  0.49  0.25  0.05
   20  5.31  3.17  4.24  2.14  3.99 -0.10 -0.11 -0.12  0.06  0.25  0.44  0.55  0.61  0.59  0.50  0.26  0.03
   21  5.35  3.27  4.31  2.08  4.06 -0.09 -0.11 -0.12  0.05  0.26  0.44  0.56  0.61  0.61  0.50  0.26  0.05
   22  5.29  3.23  4.26  2.06  4.03 -0.12 -0.13 -0.14  0.05  0.26  0.42  0.53  0.60  0.59  0.48  0.26  0.03
   23  5.30  3.21  4.26  2.09  4.02 -0.13 -0.15 -0.14  0.04  0.25  0.43  0.55  0.62  0.60  0.48  0.25  0.02
   24  5.32  3.26  4.29  2.06  4.08 -0.12 -0.14 -0.14  0.03  0.23  0.40  0.52  0.57  0.55  0.42  0.21 -0.01
   25  5.39  3.38  4.39  2.01  4.12 -0.12 -0.14 -0.13  0.05  0.27  0.44  0.58  0.64  0.64  0.52  0.31  0.09
   26  5.36  3.30  4.33  2.06  4.09 -0.11 -0.13 -0.12  0.04  0.24  0.40  0.55  0.61  0.61  0.47  0.26  0.05
   27  5.35  3.34  4.34  2.01  4.12 -0.10 -0.14 -0.14  0.02  0.21  0.38  0.52  0.58  0.59  0.45  0.24  0.04
   28  5.49  3.42  4.45  2.07  4.21 -0.07 -0.11 -0.12  0.04  0.23  0.40  0.53  0.60  0.62  0.48  0.26  0.04
   29  5.65  3.57  4.61  2.08  4.36 -0.05 -0.09 -0.08  0.07  0.26  0.43  0.54  0.61  0.62  0.47  0.24  0.01
   30  5.85  3.77  4.81  2.08  4.55 -0.04 -0.08 -0.09  0.05  0.25  0.43  0.55  0.62  0.62  0.49  0.26  0.04
   31  6.05  3.86  4.95  2.19  4.69 -0.07 -0.10 -0.09  0.07  0.27  0.44  0.57  0.64  0.66  0.51  0.26  0.03
   32  6.17  3.95  5.06  2.22  4.78 -0.08 -0.11 -0.09  0.05  0.28  0.46  0.58  0.66  0.67  0.54  0.30  0.07
   33  6.26  4.01  5.14  2.25  4.87 -0.05 -0.09 -0.06  0.08  0.29  0.46  0.56  0.63  0.61  0.47  0.24  0.01
   34  6.40  4.21  5.31  2.19  5.01 -0.07 -0.09 -0.04  0.10  0.33  0.51  0.60  0.66  0.65  0.52  0.30  0.10
   35  6.32  4.12  5.22  2.20  4.93 -0.10 -0.11 -0.07  0.10  0.33  0.51  0.61  0.68  0.68  0.52  0.31  0.11
   36  6.33  3.99  5.16  2.34  4.87 -0.12 -0.12 -0.09  0.09  0.32  0.51  0.61  0.70  0.68  0.51  0.28  0.06
   37  6.38  4.04  5.21  2.34  4.92 -0.09 -0.09 -0.05  0.10  0.34  0.52  0.62  0.69  0.67  0.51  0.26  0.04
   38  6.46  4.14  5.30  2.32  5.00 -0.09 -0.09 -0.05  0.10  0.34  0.53  0.62  0.70  0.68  0.52  0.28  0.07
   39  6.55  4.16  5.36  2.39  5.02 -0.10 -0.10 -0.04  0.13  0.37  0.58  0.67  0.76  0.74  0.57  0.32  0.11
   40  6.67  4.14  5.40  2.53  5.10 -0.07 -0.08 -0.04  0.13  0.35  0.56  0.64  0.72  0.68  0.51  0.24  0.03
   41  6.76  4.22  5.49  2.54  5.18 -0.10 -0.10 -0.06  0.11  0.35  0.58  0.66  0.76  0.71  0.53  0.26  0.05
   42  6.81  4.21  5.51  2.60  5.19 -0.09 -0.12 -0.07  0.12  0.37  0.60  0.68  0.78  0.73  0.55  0.28  0.08
   43  6.76  4.16  5.46  2.60  5.15 -0.11 -0.14 -0.09  0.11  0.36  0.60  0.68  0.78  0.70  0.51  0.24  0.04
   44  6.75  4.18  5.47  2.57  5.17 -0.10 -0.13 -0.09  0.11  0.35  0.58  0.68  0.77  0.68  0.48  0.21  0.01
   45  6.79  4.28  5.53  2.51  5.22 -0.10 -0.12 -0.07  0.12  0.36  0.59  0.69  0.80  0.70  0.51  0.23  0.05
   46  6.73  4.23  5.48  2.50  5.17 -0.11 -0.14 -0.09  0.11  0.34  0.59  0.71  0.80  0.70  0.49  0.24  0.05
   47  6.77  4.24  5.51  2.53  5.20 -0.07 -0.11 -0.08  0.11  0.32  0.58  0.70  0.81  0.69  0.47  0.20  0.01
   48  6.89  4.32  5.61  2.57  5.28 -0.09 -0.13 -0.09  0.09  0.33  0.58  0.74  0.86  0.75  0.53  0.25  0.05
   49  6.95  4.30  5.62  2.65  5.31 -0.07 -0.13 -0.11  0.07  0.31  0.57  0.74  0.87  0.75  0.53  0.22  0.01
   50  6.94  4.39  5.66  2.55  5.37 -0.11 -0.13 -0.11  0.07  0.30  0.55  0.72  0.82  0.70  0.51  0.20 -0.03
   51  6.96  4.49  5.72  2.47  5.43 -0.10 -0.14 -0.10  0.06  0.29  0.53  0.70  0.80  0.70  0.53  0.22  0.03
   52  7.00  4.37  5.68  2.63  5.40 -0.13 -0.16 -0.12  0.03  0.26  0.53  0.72  0.84  0.73  0.53  0.22  0.02
   53  7.02  4.28  5.65  2.74  5.37 -0.13 -0.16 -0.11  0.04  0.26  0.53  0.72  0.83  0.71  0.49  0.18 -0.02
   54  7.02  4.28  5.65  2.74  5.40 -0.15 -0.17 -0.14  0.00  0.23  0.49  0.70  0.81  0.68  0.46  0.16 -0.04
   55  6.95  4.26  5.61  2.69  5.37 -0.19 -0.21 -0.18 -0.04  0.20  0.47  0.69  0.80  0.67  0.46  0.16 -0.03
   56  6.98  4.25  5.61  2.73  5.38 -0.19 -0.21 -0.18 -0.04  0.18  0.45  0.68  0.79  0.68  0.47  0.16 -0.04
   57  7.07  4.27  5.67  2.80  5.45 -0.16 -0.19 -0.18 -0.05  0.18  0.44  0.68  0.78  0.64  0.43  0.12 -0.08
   58  7.22  4.45  5.84  2.77  5.61 -0.14 -0.17 -0.13 -0.05  0.18  0.43  0.67  0.76  0.65  0.44  0.16 -0.04
   59  7.36  4.50  5.93  2.86  5.70 -0.14 -0.17 -0.15 -0.07  0.18  0.44  0.69  0.78  0.66  0.46  0.17  0.00
   60  7.40  4.42  5.91  2.98  5.68 -0.17 -0.20 -0.16 -0.09  0.17  0.44  0.71  0.80  0.67  0.45  0.13 -0.04
   61  7.49  4.51  6.00  2.98  5.75 -0.12 -0.16 -0.12 -0.06  0.19  0.45  0.70  0.80  0.68  0.47  0.17 -0.01
   62  7.57  4.48  6.03  3.09  5.78 -0.16 -0.18 -0.13 -0.07  0.20  0.47  0.72  0.80  0.66  0.45  0.16  0.01
   63  7.56  4.46  6.01  3.10  5.77 -0.15 -0.18 -0.13 -0.06  0.22  0.49  0.73  0.79  0.64  0.41  0.12 -0.02
   64  7.59  4.44  6.02  3.15  5.76 -0.17 -0.18 -0.13 -0.03  0.26  0.52  0.76  0.81  0.67  0.43  0.14 -0.01
   65  7.67  4.40  6.03  3.27  5.78 -0.14 -0.18 -0.12 -0.04  0.25  0.52  0.77  0.83  0.68  0.40  0.12 -0.01
   66  7.72  4.30  6.01  3.42  5.78 -0.17 -0.20 -0.15 -0.05  0.24  0.52  0.78  0.82  0.67  0.36  0.07 -0.09
   67  7.81  4.35  6.08  3.46  5.82 -0.16 -0.22 -0.14 -0.05  0.26  0.55  0.82  0.87  0.72  0.40  0.11 -0.03
   68  7.77  4.26  6.02  3.51  5.76 -0.16 -0.22 -0.16 -0.06  0.25  0.55  0.82  0.87  0.72  0.41  0.11 -0.02
   69  7.76  4.22  5.99  3.54  5.72 -0.12 -0.21 -0.13 -0.03  0.27  0.56  0.83  0.86  0.71  0.40  0.09 -0.03
   70  7.78  4.22  6.00  3.56  5.72 -0.11 -0.19 -0.10 -0.01  0.27  0.57  0.85  0.88  0.72  0.39  0.10 -0.05
   71  7.77  4.14  5.95  3.63  5.68 -0.14 -0.21 -0.12  0.01  0.28  0.60  0.86  0.89  0.71  0.39  0.09 -0.05
   72  7.74  4.00  5.87  3.74  5.58 -0.16 -0.22 -0.12  0.01  0.28  0.62  0.90  0.91  0.73  0.41  0.10 -0.03
   73  7.62  3.77  5.69  3.85  5.42 -0.21 -0.27 -0.14 -0.01  0.28  0.64  0.92  0.92  0.73  0.38  0.06 -0.07
   74  7.48  3.61  5.55  3.87  5.27 -0.22 -0.28 -0.15  0.03  0.28  0.66  0.94  0.95  0.76  0.38  0.09 -0.06
   75  7.43  3.46  5.44  3.97  5.19 -0.22 -0.29 -0.17  0.01  0.26  0.63  0.90  0.90  0.71  0.34  0.06 -0.10
   76  7.37  3.28  5.32  4.09  5.09 -0.28 -0.32 -0.18  0.02  0.27  0.65  0.89  0.91  0.72  0.31  0.01 -0.16
   77  7.28  3.22  5.25  4.06  5.02 -0.27 -0.31 -0.16  0.01  0.25  0.63  0.88  0.90  0.71  0.32  0.01 -0.16
   78  7.27  3.15  5.21  4.12  4.98 -0.27 -0.31 -0.15  0.03  0.24  0.63  0.88  0.90  0.70  0.31  0.01 -0.15
   79  7.24  3.06  5.15  4.18  4.92 -0.30 -0.32 -0.16  0.03  0.24  0.62  0.89  0.92  0.70  0.30  0.00 -0.14
   80  7.25  2.95  5.10  4.30  4.87 -0.29 -0.31 -0.16  0.03  0.24  0.63  0.89  0.90  0.69  0.28 -0.02 -0.17
   81  7.30  3.02  5.16  4.28  4.92 -0.28 -0.28 -0.15  0.05  0.25  0.64  0.89  0.90  0.69  0.31  0.02 -0.13
   82  7.27  2.97  5.12  4.30  4.91 -0.30 -0.27 -0.18  0.03  0.23  0.63  0.86  0.86  0.62  0.26 -0.05 -0.20
   83  7.29  3.01  5.15  4.28  4.95 -0.33 -0.28 -0.18  0.02  0.23  0.62  0.87  0.87  0.61  0.25 -0.05 -0.20
   84  7.43  2.99  5.21  4.44  5.00 -0.34 -0.26 -0.14  0.06  0.26  0.64  0.89  0.89  0.62  0.25 -0.09 -0.22
   85  7.58  3.01  5.30  4.57  5.06 -0.33 -0.26 -0.13  0.08  0.30  0.67  0.94  0.93  0.65  0.28 -0.07 -0.19
   86  7.63  3.01  5.32  4.62  5.09 -0.32 -0.25 -0.11  0.09  0.31  0.68  0.93  0.91  0.63  0.25 -0.11 -0.22
   87  7.78  3.12  5.45  4.66  5.23 -0.33 -0.24 -0.11  0.11  0.34  0.67  0.91  0.89  0.60  0.21 -0.15 -0.27
   88  7.91  3.34  5.62  4.57  5.40 -0.32 -0.20 -0.11  0.11  0.33  0.63  0.90  0.89  0.60  0.23 -0.12 -0.24
   89  8.10  3.41  5.76  4.69  5.55 -0.32 -0.18 -0.11  0.10  0.33  0.62  0.88  0.86  0.55  0.19 -0.18 -0.28
   90  8.30  3.51  5.91  4.79  5.71 -0.34 -0.18 -0.09  0.11  0.34  0.64  0.89  0.85  0.52  0.16 -0.20 -0.30
   91  8.51  3.65  6.08  4.86  5.92 -0.33 -0.18 -0.11  0.09  0.32  0.59  0.87  0.78  0.43  0.10 -0.26 -0.34
   92  8.78  3.80  6.29  4.98  6.12 -0.36 -0.19 -0.14  0.08  0.33  0.61  0.88  0.80  0.45  0.11 -0.23 -0.34
   93  8.94  3.92  6.43  5.02  6.26 -0.36 -0.20 -0.14  0.05  0.30  0.60  0.86  0.80  0.46  0.14 -0.20 -0.30
   94  9.10  3.98  6.54  5.12  6.39 -0.34 -0.20 -0.14  0.04  0.29  0.58  0.83  0.76  0.43  0.12 -0.23 -0.35
   95  9.16  4.17  6.66  4.99  6.50 -0.32 -0.20 -0.13  0.05  0.29  0.57  0.82  0.77  0.43  0.16 -0.18 -0.28
   96  9.22  4.18  6.70  5.04  6.56 -0.31 -0.22 -0.15  0.03  0.28  0.56  0.78  0.72  0.39  0.12 -0.20 -0.30
   97  9.31  4.28  6.80  5.03  6.64 -0.28 -0.19 -0.12  0.05  0.29  0.55  0.76  0.70  0.39  0.12 -0.18 -0.24
   98  9.42  4.39  6.90  5.03  6.77 -0.26 -0.21 -0.12  0.05  0.27  0.53  0.72  0.66  0.38  0.10 -0.18 -0.28
   99  9.57  4.52  7.05  5.05  6.87 -0.24 -0.18 -0.11  0.07  0.31  0.55  0.73  0.67  0.41  0.16 -0.08 -0.20
  100  9.68  4.58  7.13  5.10  6.95 -0.21 -0.16 -0.11  0.06  0.29  0.55  0.72  0.66  0.41  0.16 -0.07 -0.18
  101  9.80  4.60  7.20  5.20  7.05 -0.22 -0.17 -0.13  0.02  0.25  0.53  0.68  0.63  0.37  0.11 -0.10 -0.22
  102  9.93  4.71  7.32  5.22  7.18 -0.20 -0.17 -0.14  0.00  0.22  0.52  0.65  0.61  0.34  0.11 -0.09 -0.22
  103 10.06  4.77  7.41  5.29  7.31 -0.21 -0.19 -0.15  0.01  0.23  0.53  0.62  0.57  0.28  0.03 -0.16 -0.26
  104 10.18  4.91  7.55  5.27  7.44 -0.20 -0.20 -0.14  0.01  0.25  0.54  0.61  0.55  0.28  0.04 -0.15 -0.27
  105 10.23  5.09  7.66  5.14  7.53 -0.19 -0.20 -0.14  0.01  0.24  0.52  0.59  0.57  0.32  0.11 -0.10 -0.19
  106 10.21  5.10  7.65  5.11  7.52 -0.17 -0.20 -0.16  0.01  0.23  0.53  0.57  0.56  0.32  0.11 -0.07 -0.17
  107 10.29  5.13  7.71  5.16  7.58 -0.12 -0.16 -0.12  0.03  0.26  0.53  0.56  0.54  0.29  0.09 -0.09 -0.20
  108 10.45  5.28  7.86  5.17  7.72 -0.12 -0.14 -0.11  0.08  0.28  0.56  0.56  0.54  0.30  0.08 -0.09 -0.20
  109 10.48  5.44  7.96  5.04  7.83 -0.12 -0.15 -0.11  0.08  0.28  0.55  0.53  0.51  0.27  0.06 -0.10 -0.22
  110 10.69  5.52  8.10  5.17  7.99 -0.15 -0.17 -0.14  0.07  0.27  0.55  0.52  0.48  0.24  0.02 -0.12 -0.25
  111 10.87  5.64  8.26  5.23  8.16 -0.20 -0.20 -0.14  0.09  0.28  0.55  0.51  0.47  0.20 -0.01 -0.15 -0.28
  112 11.04  5.76  8.40  5.28  8.32 -0.23 -0.22 -0.15  0.07  0.29  0.56  0.51  0.46  0.19 -0.02 -0.17 -0.31
  113 11.15  5.80  8.48  5.35  8.40 -0.27 -0.25 -0.18  0.06  0.31  0.55  0.50  0.44  0.18 -0.02 -0.17 -0.28
  114 11.24  5.81  8.52  5.43  8.47 -0.26 -0.24 -0.18  0.05  0.28  0.54  0.47  0.42  0.13 -0.07 -0.20 -0.29
  115 11.31  5.79  8.55  5.52  8.52 -0.29 -0.26 -0.19  0.04  0.29  0.52  0.43  0.38  0.09 -0.09 -0.20 -0.30
  116 11.41  5.80  8.60  5.61  8.56 -0.30 -0.27 -0.20  0.05  0.31  0.52  0.42  0.38  0.10 -0.07 -0.18 -0.28
  117 11.43  5.67  8.55  5.76  8.53 -0.32 -0.29 -0.20  0.05  0.32  0.51  0.39  0.32  0.06 -0.11 -0.20 -0.31
  118 11.55  5.60  8.57  5.95  8.56 -0.32 -0.30 -0.22  0.03  0.32  0.51  0.36  0.28  0.06 -0.10 -0.20 -0.32
  119 11.56  5.59  8.58  5.97  8.58 -0.35 -0.32 -0.22  0.04  0.30  0.48  0.34  0.26  0.05 -0.10 -0.20 -0.30
  120 11.66  5.51  8.59  6.15  8.61 -0.36 -0.34 -0.24  0.03  0.34  0.51  0.33  0.23  0.02 -0.17 -0.27 -0.36
  121 11.74  5.53  8.64  6.21  8.67 -0.39 -0.34 -0.24  0.02  0.34  0.49  0.32  0.21  0.02 -0.19 -0.30 -0.38
  122 11.71  5.58  8.65  6.13  8.67 -0.39 -0.36 -0.25  0.01  0.32  0.49  0.30  0.21  0.04 -0.14 -0.23 -0.28
  123 11.75  5.46  8.60  6.29  8.66 -0.38 -0.37 -0.25 -0.01  0.32  0.47  0.26  0.16 -0.01 -0.20 -0.30 -0.34
  124 11.92  5.50  8.71  6.42  8.76 -0.35 -0.34 -0.23 -0.02  0.30  0.44  0.24  0.16 -0.01 -0.19 -0.28 -0.30
  125 11.99  5.55  8.77  6.44  8.82 -0.34 -0.33 -0.21 -0.02  0.28  0.43  0.23  0.15 -0.02 -0.18 -0.30 -0.31
  126 12.11  5.60  8.85  6.51  8.91 -0.32 -0.33 -0.21 -0.03  0.29  0.43  0.21  0.14 -0.01 -0.19 -0.29 -0.31
  127 12.24  5.64  8.94  6.60  9.01 -0.32 -0.31 -0.22 -0.01  0.29  0.41  0.18  0.11 -0.04 -0.23 -0.33 -0.35
  128 12.31  5.76  9.03  6.55  9.10 -0.33 -0.34 -0.21 -0.02  0.27  0.40  0.18  0.11 -0.02 -0.20 -0.34 -0.34
  129 12.42  5.82  9.12  6.60  9.21 -0.33 -0.35 -0.22 -0.02  0.27  0.38  0.12  0.06 -0.06 -0.24 -0.37 -0.39
  130 12.56  5.98  9.27  6.58  9.37 -0.33 -0.36 -0.22 -0.01  0.26  0.37  0.10  0.05 -0.05 -0.23 -0.38 -0.39
  131 12.68  6.13  9.41  6.55  9.53 -0.35 -0.37 -0.23 -0.03  0.24  0.32  0.05  0.01 -0.08 -0.25 -0.40 -0.40
  132 12.81  6.34  9.58  6.47  9.69 -0.34 -0.35 -0.22 -0.02  0.23  0.31  0.05  0.03 -0.06 -0.22 -0.37 -0.38
  133 12.87  6.55  9.71  6.32  9.79 -0.31 -0.32 -0.20 -0.01  0.23  0.30  0.05  0.05 -0.03 -0.16 -0.28 -0.30
  134 13.07  6.66  9.86  6.41  9.93 -0.26 -0.30 -0.18 -0.01  0.23  0.30  0.05  0.06 -0.02 -0.15 -0.25 -0.30
  135 13.15  6.87 10.01  6.28 10.08 -0.25 -0.28 -0.16  0.02  0.20  0.26  0.01  0.01 -0.05 -0.14 -0.22 -0.27
  136 13.31  7.05 10.18  6.26 10.25 -0.24 -0.29 -0.15  0.03  0.20  0.23  0.02  0.02 -0.06 -0.13 -0.22 -0.28
  137 13.48  7.26 10.37  6.22 10.44 -0.24 -0.27 -0.14  0.07  0.22  0.24  0.03  0.05 -0.05 -0.14 -0.23 -0.33
  138 13.51  7.51 10.51  6.00 10.55 -0.25 -0.26 -0.14  0.08  0.23  0.25  0.04  0.07 -0.01 -0.10 -0.16 -0.26
  139 13.56  7.57 10.57  5.99 10.63 -0.26 -0.27 -0.15  0.08  0.23  0.24  0.03  0.03 -0.04 -0.14 -0.20 -0.30
  140 13.65  7.67 10.66  5.98 10.72 -0.24 -0.24 -0.15  0.10  0.24  0.24  0.01  0.01 -0.05 -0.16 -0.20 -0.30
  141 13.65  7.83 10.74  5.82 10.78 -0.25 -0.24 -0.15  0.10  0.23  0.24  0.03  0.05 -0.01 -0.10 -0.14 -0.24
  142 13.66  7.89 10.77  5.77 10.79 -0.24 -0.19 -0.15  0.10  0.23  0.23  0.04  0.07  0.05 -0.05 -0.11 -0.20
  143 13.80  7.94 10.87  5.86 10.90 -0.19 -0.14 -0.13  0.12  0.22  0.21  0.01  0.03 -0.01 -0.10 -0.12 -0.23
  144 13.92  8.13 11.02  5.79 11.03 -0.19 -0.14 -0.12  0.14  0.22  0.22  0.04  0.06  0.02 -0.05 -0.08 -0.18
  145 14.05  8.19 11.12  5.86 11.14 -0.22 -0.14 -0.12  0.13  0.23  0.22  0.04  0.05 -0.01 -0.07 -0.11 -0.21
  146 14.21  8.30 11.26  5.91 11.26 -0.20 -0.11 -0.11  0.14  0.23  0.24  0.05  0.05  0.01 -0.07 -0.11 -0.19
  147 14.40  8.44 11.42  5.96 11.43 -0.16 -0.10 -0.11  0.15  0.22  0.22  0.07  0.05  0.01 -0.07 -0.14 -0.19
  148 14.45  8.58 11.51  5.87 11.53 -0.21 -0.12 -0.12  0.16  0.22  0.22  0.06  0.04  0.01 -0.08 -0.18 -0.21
  149 14.47  8.66 11.57  5.81 11.58 -0.21 -0.12 -0.12  0.17  0.24  0.24  0.08  0.05  0.01 -0.09 -0.20 -0.22
  150 14.54  8.68 11.61  5.86 11.62 -0.22 -0.13 -0.13  0.15  0.24  0.26  0.08  0.07  0.04 -0.07 -0.20 -0.22
  151 14.56  8.78 11.67  5.78 11.66 -0.21 -0.10 -0.14  0.16  0.25  0.28  0.09  0.08  0.06 -0.05 -0.16 -0.16
  152 14.58  8.78 11.68  5.80 11.69 -0.20 -0.10 -0.14  0.14  0.25  0.28  0.06  0.03  0.02 -0.07 -0.17 -0.15
  153 14.62  8.86 11.74  5.76 11.77 -0.22 -0.12 -0.15  0.11  0.22  0.24  0.03 -0.01 -0.02 -0.10 -0.22 -0.20
  154 14.63  9.00 11.82  5.63 11.82 -0.23 -0.12 -0.14  0.12  0.24  0.27  0.05  0.02  0.03 -0.03 -0.16 -0.11
  155 14.64  8.98 11.81  5.66 11.82 -0.24 -0.12 -0.14  0.14  0.23  0.26  0.04  0.03  0.03 -0.03 -0.18 -0.12
  156 14.69  8.91 11.80  5.78 11.84 -0.24 -0.13 -0.14  0.13  0.23  0.25  0.01 -0.03 -0.03 -0.12 -0.26 -0.19
  157 14.78  9.01 11.90  5.77 11.92 -0.19 -0.15 -0.11  0.15  0.25  0.25  0.01 -0.02 -0.02 -0.07 -0.19 -0.15
  158 14.82  9.10 11.96  5.72 11.97 -0.21 -0.13 -0.11  0.14  0.25  0.26  0.02 -0.01  0.00 -0.06 -0.18 -0.14
  159 14.88  9.07 11.98  5.81 11.99 -0.22 -0.14 -0.11  0.14  0.26  0.28  0.04  0.00  0.01 -0.06 -0.19 -0.15
  160 14.83  9.11 11.97  5.72 11.98 -0.21 -0.13 -0.12  0.13  0.24  0.26  0.05  0.02  0.02 -0.07 -0.18 -0.15
  161 14.81  9.19 12.00  5.62 12.00 -0.19 -0.12 -0.10  0.12  0.23  0.26  0.07  0.05  0.04 -0.04 -0.16 -0.14
  162 14.75  9.21 11.98  5.54 12.00 -0.24 -0.16 -0.11  0.11  0.21  0.24  0.03  0.02  0.01 -0.08 -0.17 -0.14
  163 14.85  9.24 12.05  5.61 12.08 -0.22 -0.14 -0.11  0.10  0.19  0.22  0.02 -0.01 -0.01 -0.11 -0.20 -0.18
  164 14.97  9.42 12.19  5.55 12.23 -0.20 -0.15 -0.11  0.08  0.17  0.22  0.02 -0.01 -0.01 -0.11 -0.19 -0.16
  165 15.08  9.58 12.33  5.50 12.39 -0.22 -0.15 -0.10  0.07  0.16  0.19 -0.01 -0.05 -0.07 -0.14 -0.23 -0.21
  166 15.20  9.69 12.44  5.51 12.51 -0.25 -0.19 -0.10  0.07  0.16  0.18 -0.01 -0.04 -0.05 -0.14 -0.23 -0.22
  167 15.35  9.78 12.57  5.57 12.63 -0.25 -0.18 -0.09  0.07  0.17  0.19  0.00 -0.03 -0.04 -0.12 -0.22 -0.21
  168 15.53  9.82 12.67  5.71 12.73 -0.25 -0.17 -0.09  0.08  0.18  0.21  0.00 -0.03 -0.05 -0.14 -0.25 -0.24
  169 15.65  9.96 12.81  5.69 12.88 -0.25 -0.19 -0.09  0.08  0.18  0.20  0.01 -0.03 -0.06 -0.16 -0.27 -0.25
  170 15.81 10.12 12.97  5.69 13.03 -0.26 -0.19 -0.10  0.06  0.18  0.21  0.02 -0.02 -0.05 -0.14 -0.23 -0.23
  171 15.96 10.23 13.09  5.73 13.17 -0.26 -0.19 -0.10  0.06  0.15  0.18  0.00 -0.04 -0.07 -0.15 -0.24 -0.25
  172 16.10 10.37 13.24  5.73 13.33 -0.28 -0.20 -0.09  0.05  0.15  0.19  0.02 -0.04 -0.11 -0.20 -0.30 -0.30
  173 16.20 10.55 13.38  5.65 13.46 -0.28 -0.21 -0.10  0.05  0.15  0.18  0.01 -0.05 -0.10 -0.16 -0.27 -0.27
  174 16.31 10.77 13.54  5.54 13.61 -0.24 -0.20 -0.06  0.05  0.16  0.19  0.06 -0.02 -0.07 -0.15 -0.27 -0.26
  175 16.39 10.98 13.68  5.41 13.75 -0.24 -0.19 -0.06  0.05  0.16  0.18  0.04 -0.02 -0.08 -0.14 -0.27 -0.24
  176 16.40 11.13 13.76  5.27 13.82 -0.26 -0.20 -0.06  0.05  0.18  0.19  0.06  0.00 -0.05 -0.12 -0.24 -0.22
  177 16.44 11.25 13.85  5.19 13.88 -0.22 -0.18 -0.06  0.04  0.18  0.20  0.07  0.02 -0.02 -0.05 -0.19 -0.18
  178 16.44 11.30 13.87  5.14 13.91 -0.22 -0.18 -0.08  0.04  0.18  0.20  0.08  0.02 -0.05 -0.07 -0.20 -0.18
  179 16.43 11.37 13.90  5.06 13.92 -0.24 -0.17 -0.09  0.05  0.19  0.20  0.09  0.04 -0.03 -0.02 -0.17 -0.15
  180 16.37 11.39 13.88  4.98 13.89 -0.22 -0.16 -0.08  0.06  0.18  0.21  0.12  0.06  0.00  0.01 -0.13 -0.11
  181 16.44 11.42 13.93  5.02 13.93 -0.18 -0.14 -0.07  0.05  0.17  0.20  0.14  0.08  0.02  0.01 -0.12 -0.10
  182 16.47 11.49 13.98  4.98 13.99 -0.19 -0.18 -0.07  0.05  0.16  0.19  0.13  0.08  0.01 -0.03 -0.17 -0.15
  183 16.46 11.65 14.05  4.81 14.04 -0.17 -0.16 -0.06  0.04  0.13  0.17  0.14  0.11  0.06  0.04 -0.10 -0.08
  184 16.43 11.67 14.05  4.76 14.05 -0.18 -0.14 -0.07  0.03  0.12  0.18  0.15  0.11  0.04  0.04 -0.11 -0.11
  185 16.36 11.74 14.05  4.62 14.03 -0.16 -0.16 -0.06  0.03  0.12  0.20  0.18  0.14  0.06  0.05 -0.11 -0.10
  186 16.32 11.79 14.06  4.53 14.02 -0.15 -0.14 -0.05  0.03  0.14  0.23  0.22  0.19  0.11  0.08 -0.09 -0.09
  187 16.26 11.76 14.01  4.50 13.98 -0.15 -0.13 -0.06  0.05  0.13  0.20  0.18  0.17  0.10  0.06 -0.10 -0.10
  188 16.26 11.75 14.01  4.51 13.98 -0.15 -0.14 -0.06  0.06  0.14  0.22  0.20  0.18  0.11  0.05 -0.12 -0.14
  189 16.27 11.76 14.02  4.51 13.98 -0.16 -0.15 -0.07  0.06  0.15  0.23  0.19  0.19  0.11  0.07 -0.12 -0.12
  190 16.34 11.74 14.04  4.60 14.01 -0.17 -0.15 -0.07  0.07  0.17  0.27  0.20  0.20  0.11  0.06 -0.14 -0.14
  191 16.53 11.74 14.14  4.79 14.10 -0.16 -0.15 -0.07  0.09  0.17  0.27  0.20  0.20  0.11  0.04 -0.15 -0.16
  192 16.61 11.81 14.21  4.80 14.17 -0.17 -0.16 -0.07  0.09  0.17  0.29  0.23  0.22  0.12  0.04 -0.14 -0.15
  193 16.66 11.87 14.26  4.79 14.23 -0.20 -0.19 -0.08  0.07  0.16  0.28  0.22  0.25  0.17  0.05 -0.14 -0.15
  194 16.68 11.88 14.28  4.80 14.24 -0.17 -0.18 -0.07  0.07  0.16  0.29  0.22  0.25  0.16  0.05 -0.12 -0.14
  195 16.76 11.91 14.34  4.85 14.29 -0.17 -0.16 -0.07  0.07  0.15  0.28  0.21  0.25  0.18  0.05 -0.11 -0.14
  196 16.85 11.93 14.39  4.92 14.35 -0.16 -0.15 -0.07  0.07  0.15  0.29  0.21  0.27  0.17  0.05 -0.13 -0.14
  197 16.83 11.97 14.40  4.86 14.34 -0.15 -0.14 -0.07  0.06  0.14  0.26  0.19  0.26  0.20  0.09 -0.07 -0.09
  198 16.76 11.89 14.33  4.87 14.28 -0.18 -0.15 -0.06  0.07  0.15  0.26  0.18  0.23  0.18  0.05 -0.09 -0.10
  199 16.80 11.81 14.31  4.99 14.25 -0.16 -0.15 -0.05  0.07  0.18  0.28  0.19  0.23  0.19  0.08 -0.08 -0.08
  200 16.85 11.70 14.27  5.15 14.25 -0.21 -0.17 -0.07  0.07  0.16  0.26  0.14  0.19  0.14  0.02 -0.13 -0.14
  201 16.86 11.70 14.28  5.16 14.24 -0.19 -0.15 -0.05  0.07  0.19  0.28  0.16  0.18  0.15  0.04 -0.09 -0.11
  202 16.96 11.68 14.32  5.28 14.27 -0.18 -0.16 -0.05  0.06  0.20  0.30  0.18  0.20  0.15  0.04 -0.09 -0.10
  203 17.00 11.66 14.33  5.34 14.30 -0.19 -0.17 -0.07  0.05  0.19  0.29  0.16  0.17  0.11  0.00 -0.11 -0.08
  204 16.98 11.62 14.30  5.36 14.26 -0.19 -0.17 -0.08  0.04  0.17  0.29  0.18  0.20  0.13  0.00 -0.08 -0.06
  205 16.84 11.60 14.22  5.24 14.18 -0.17 -0.16 -0.07  0.04  0.15  0.28  0.18  0.19  0.13  0.03 -0.05 -0.03
  206 16.72 11.46 14.09  5.26 14.07 -0.17 -0.19 -0.08  0.03  0.16  0.27  0.14  0.16  0.09 -0.01 -0.10 -0.07
  207 16.65 11.36 14.00  5.29 13.99 -0.21 -0.20 -0.08  0.03  0.18  0.29  0.16  0.17  0.08 -0.01 -0.12 -0.10
  208 16.56 11.29 13.92  5.27 13.93 -0.23 -0.21 -0.09  0.03  0.18  0.30  0.16  0.13  0.03 -0.05 -0.15 -0.13
  209 16.58 11.32 13.95  5.26 13.95 -0.24 -0.20 -0.08  0.04  0.18  0.28  0.16  0.14  0.06 -0.04 -0.16 -0.15
  210 16.60 11.34 13.97  5.26 13.96 -0.25 -0.22 -0.08  0.04  0.20  0.31  0.19  0.16  0.09 -0.02 -0.15 -0.15
  211 16.53 11.35 13.94  5.18 13.94 -0.25 -0.23 -0.10  0.05  0.20  0.29  0.19  0.14  0.06 -0.02 -0.16 -0.19
  212 16.55 11.44 13.99  5.11 13.99 -0.27 -0.23 -0.11  0.05  0.20  0.31  0.21  0.18  0.07 -0.01 -0.16 -0.19
  213 16.64 11.50 14.07  5.14 14.04 -0.23 -0.22 -0.12  0.03  0.20  0.32  0.23  0.22  0.11  0.03 -0.11 -0.16
  214 16.72 11.60 14.16  5.12 14.12 -0.22 -0.20 -0.12  0.05  0.19  0.34  0.25  0.25  0.13  0.05 -0.08 -0.15
  215 16.72 11.72 14.22  5.00 14.16 -0.21 -0.20 -0.12  0.03  0.19  0.34  0.28  0.30  0.17  0.09 -0.06 -0.13
  216 16.83 11.83 14.33  5.00 14.25 -0.18 -0.19 -0.12  0.04  0.19  0.35  0.31  0.35  0.21  0.14 -0.02 -0.09
  217 16.85 11.91 14.38  4.94 14.27 -0.19 -0.16 -0.13  0.06  0.20  0.38  0.34  0.38  0.26  0.16  0.03 -0.05
  218 16.88 11.96 14.42  4.92 14.30 -0.17 -0.17 -0.12  0.05  0.20  0.40  0.38  0.43  0.32  0.18  0.03 -0.08
  219 16.97 12.05 14.51  4.92 14.39 -0.16 -0.15 -0.12  0.05  0.22  0.40  0.38  0.44  0.31  0.18  0.01 -0.10
  220 17.17 12.12 14.65  5.05 14.50 -0.18 -0.16 -0.14  0.04  0.24  0.45  0.45  0.51  0.36  0.23  0.06 -0.08
  221 17.19 12.26 14.73  4.93 14.56 -0.17 -0.15 -0.13  0.05  0.24  0.47  0.49  0.54  0.40  0.25  0.09 -0.06
  222 17.26 12.30 14.78  4.96 14.60 -0.13 -0.13 -0.13  0.04  0.25  0.47  0.50  0.57  0.41  0.27  0.10 -0.06
  223 17.39 12.41 14.90  4.98 14.70 -0.08 -0.10 -0.12  0.05  0.26  0.46  0.51  0.60  0.45  0.30  0.13 -0.03
  224 17.40 12.44 14.92  4.96 14.71 -0.07 -0.11 -0.13  0.05  0.26  0.49  0.52  0.62  0.48  0.30  0.13 -0.03
  225 17.40 12.45 14.92  4.95 14.72 -0.09 -0.12 -0.13  0.04  0.25  0.49  0.54  0.62  0.45  0.27  0.13 -0.04
  226 17.40 12.47 14.93  4.93 14.73 -0.11 -0.16 -0.12  0.02  0.24  0.49  0.55  0.64  0.48  0.28  0.15 -0.02
  227 17.41 12.32 14.86  5.09 14.67 -0.15 -0.18 -0.14  0.01  0.25  0.50  0.56  0.66  0.48  0.26  0.11 -0.06
  228 17.39 12.24 14.81  5.15 14.63 -0.17 -0.20 -0.14  0.02  0.25  0.50  0.59  0.68  0.47  0.23  0.05 -0.09
  229 17.38 12.13 14.75  5.25 14.59 -0.20 -0.22 -0.16  0.01  0.25  0.51  0.59  0.69  0.48  0.20 -0.02 -0.17
  230 17.32 12.15 14.73  5.17 14.55 -0.18 -0.21 -0.14  0.03  0.26  0.54  0.62  0.69  0.50  0.21  0.01 -0.12
  231 17.21 12.08 14.64  5.13 14.48 -0.22 -0.23 -0.14  0.02  0.26  0.54  0.63  0.68  0.47  0.17 -0.04 -0.17
  232 17.13 12.06 14.59  5.07 14.40 -0.22 -0.23 -0.12  0.03  0.28  0.56  0.67  0.72  0.52  0.23  0.02 -0.13
  233 16.99 11.96 14.48  5.03 14.28 -0.21 -0.22 -0.12  0.05  0.29  0.57  0.67  0.70  0.50  0.23  0.02 -0.14
  234 16.84 11.87 14.35  4.97 14.14 -0.20 -0.22 -0.11  0.05  0.30  0.59  0.71  0.73  0.52  0.25  0.03 -0.13
  235 16.60 11.79 14.19  4.81 13.99 -0.19 -0.20 -0.09  0.05  0.29  0.58  0.69  0.70  0.51  0.22  0.00 -0.14
  236 16.43 11.63 14.03  4.80 13.83 -0.21 -0.21 -0.12  0.05  0.28  0.57  0.69  0.70  0.49  0.23  0.02 -0.12
  237 16.29 11.52 13.91  4.77 13.69 -0.19 -0.18 -0.09  0.07  0.29  0.58  0.73  0.72  0.50  0.24  0.01 -0.12
  238 16.15 11.36 13.75  4.79 13.54 -0.21 -0.21 -0.10  0.05  0.28  0.59  0.75  0.73  0.50  0.24  0.02 -0.14
  239 16.00 11.23 13.61  4.77 13.40 -0.24 -0.22 -0.10  0.07  0.30  0.60  0.77  0.73  0.50  0.23  0.02 -0.15
  240 15.83 11.08 13.45  4.75 13.27 -0.25 -0.23 -0.12  0.06  0.27  0.58  0.76  0.73  0.47  0.20 -0.03 -0.19
  241 15.72 10.98 13.35  4.74 13.19 -0.24 -0.21 -0.14  0.02  0.26  0.58  0.75  0.69  0.43  0.15 -0.08 -0.24
  242 15.63 11.03 13.33  4.60 13.15 -0.22 -0.20 -0.14  0.03  0.26  0.59  0.77  0.69  0.44  0.17 -0.05 -0.19
  243 15.57 11.00 13.28  4.57 13.10 -0.21 -0.18 -0.13  0.03  0.26  0.60  0.77  0.68  0.42  0.15 -0.05 -0.19
  244 15.41 10.95 13.18  4.46 13.00 -0.22 -0.18 -0.14  0.02  0.26  0.59  0.77  0.67  0.41  0.17 -0.01 -0.15
  245 15.37 10.76 13.07  4.61 12.90 -0.25 -0.20 -0.15  0.03  0.28  0.61  0.80  0.69  0.40  0.12 -0.06 -0.22
  246 15.32 10.71 13.01  4.61 12.80 -0.21 -0.18 -0.15  0.04  0.29  0.63  0.83  0.74  0.47  0.18  0.01 -0.14
  247 15.21 10.59 12.90  4.62 12.69 -0.19 -0.16 -0.14  0.03  0.30  0.62  0.83  0.74  0.45  0.14  0.00 -0.14
  248 15.09 10.41 12.75  4.68 12.56 -0.23 -0.20 -0.16  0.00  0.28  0.62  0.85  0.75  0.44  0.14 -0.01 -0.16
  249 15.02 10.22 12.62  4.80 12.44 -0.25 -0.22 -0.17  0.02  0.29  0.62  0.86  0.76  0.42  0.12 -0.05 -0.20
  250 15.01 10.06 12.53  4.95 12.38 -0.28 -0.24 -0.19  0.01  0.29  0.64  0.86  0.74  0.38  0.06 -0.12 -0.28
  251 14.93 10.15 12.54  4.78 12.36 -0.27 -0.23 -0.18  0.02  0.30  0.63  0.88  0.76  0.43  0.10 -0.09 -0.22
  252 14.84 10.05 12.44  4.79 12.29 -0.31 -0.27 -0.19 -0.01  0.28  0.62  0.85  0.76  0.42  0.07 -0.11 -0.22
  253 14.74 10.02 12.38  4.72 12.21 -0.29 -0.25 -0.19  0.01  0.28  0.62  0.85  0.77  0.43  0.09 -0.11 -0.19
  254 14.69  9.95 12.32  4.74 12.14 -0.26 -0.23 -0.17  0.00  0.30  0.65  0.88  0.80  0.44  0.10 -0.11 -0.19
  255 14.63  9.89 12.26  4.74 12.07 -0.26 -0.21 -0.16  0.01  0.30  0.66  0.91  0.81  0.44  0.09 -0.14 -0.20
  256 14.47  9.87 12.17  4.60 11.98 -0.28 -0.24 -0.18  0.01  0.30  0.65  0.91  0.82  0.47  0.12 -0.11 -0.16
  257 14.37  9.78 12.07  4.59 11.88 -0.28 -0.22 -0.15  0.03  0.31  0.65  0.91  0.81  0.46  0.13 -0.10 -0.17
  258 14.26  9.74 12.00  4.52 11.78 -0.26 -0.23 -0.15  0.05  0.32  0.66  0.93  0.85  0.49  0.16 -0.06 -0.15
  259 14.17  9.77 11.97  4.40 11.75 -0.23 -0.20 -0.12  0.04  0.30  0.64  0.91  0.83  0.48  0.16 -0.06 -0.15
  260 14.15  9.87 12.01  4.28 11.77 -0.21 -0.18 -0.11  0.05  0.30  0.65  0.92  0.84  0.51  0.21 -0.02 -0.10
  261 14.11  9.90 12.00  4.21 11.76 -0.21 -0.18 -0.10  0.05  0.30  0.65  0.92  0.84  0.51  0.22  0.00 -0.09
  262 14.04  9.94 11.99  4.10 11.73 -0.20 -0.17 -0.08  0.06  0.30  0.66  0.93  0.85  0.54  0.25  0.00 -0.08
  263 13.98 10.08 12.03  3.90 11.77 -0.14 -0.12 -0.05  0.08  0.29  0.64  0.90  0.84  0.54  0.26 -0.01 -0.07
  264 13.93 10.25 12.09  3.68 11.81 -0.14 -0.12 -0.06  0.09  0.28  0.64  0.89  0.84  0.58  0.31  0.08  0.02
  265 13.86 10.24 12.05  3.62 11.72 -0.11 -0.10 -0.03  0.12  0.31  0.66  0.93  0.89  0.64  0.38  0.15  0.08
  266 13.80 10.04 11.92  3.76 11.64 -0.14 -0.14 -0.04  0.10  0.29  0.65  0.91  0.85  0.57  0.30  0.04 -0.02
  267 13.72 10.12 11.92  3.60 11.60 -0.11 -0.13 -0.03  0.11  0.32  0.68  0.95  0.91  0.64  0.38  0.14  0.07
  268 13.62  9.95 11.78  3.67 11.45 -0.12 -0.15 -0.05  0.13  0.34  0.73  1.00  0.95  0.65  0.36  0.12  0.05
  269 13.48  9.87 11.67  3.61 11.35 -0.11 -0.15 -0.06  0.13  0.33  0.71  0.97  0.93  0.64  0.35  0.12  0.07
  270 13.45  9.87 11.66  3.58 11.31 -0.07 -0.12 -0.03  0.14  0.37  0.74  0.98  0.95  0.67  0.39  0.15  0.08
  271 13.38  9.76 11.57  3.62 11.22 -0.11 -0.16 -0.05  0.14  0.36  0.75  0.99  0.98  0.69  0.39  0.15  0.07
  272 13.30  9.60 11.45  3.70 11.12 -0.12 -0.16 -0.07  0.11  0.35  0.76  1.00  0.98  0.68  0.36  0.11  0.01
  273 13.27  9.58 11.43  3.69 11.10 -0.12 -0.15 -0.06  0.11  0.37  0.74  0.98  0.96  0.66  0.34  0.07 -0.02
  274 13.25  9.53 11.39  3.72 11.04 -0.14 -0.17 -0.08  0.14  0.36  0.78  1.03  1.01  0.72  0.38  0.10  0.01
  275 13.06  9.44 11.25  3.62 10.90 -0.14 -0.17 -0.07  0.14  0.38  0.78  1.02  1.01  0.72  0.40  0.11  0.02
  276 12.89  9.30 11.10  3.59 10.76 -0.15 -0.17 -0.07  0.14  0.37  0.77  1.01  0.98  0.69  0.37  0.08 -0.02
  277 12.73  9.14 10.93  3.59 10.59 -0.19 -0.20 -0.11  0.15  0.39  0.79  1.04  1.03  0.71  0.39  0.12  0.03
  278 12.54  8.81 10.68  3.73 10.36 -0.24 -0.24 -0.14  0.12  0.39  0.78  1.05  1.02  0.70  0.36  0.07 -0.04
  279 12.39  8.62 10.51  3.77 10.21 -0.24 -0.24 -0.14  0.11  0.40  0.80  1.05  1.02  0.67  0.31 -0.01 -0.13
  280 12.29  8.70 10.49  3.59 10.19 -0.24 -0.22 -0.14  0.11  0.38  0.78  1.02  1.01  0.66  0.32  0.02 -0.10
  281 12.09  8.66 10.38  3.43 10.03 -0.26 -0.22 -0.14  0.12  0.43  0.82  1.04  1.05  0.73  0.41  0.11 -0.01
  282 11.91  8.37 10.14  3.54  9.85 -0.27 -0.21 -0.14  0.12  0.42  0.79  0.99  0.99  0.66  0.30 -0.01 -0.14
  283 11.82  8.42 10.12  3.40  9.81 -0.26 -0.19 -0.12  0.12  0.42  0.79  0.98  0.98  0.69  0.36  0.04 -0.10
  284 11.76  8.37 10.07  3.39  9.77 -0.23 -0.17 -0.10  0.14  0.42  0.77  0.97  0.95  0.66  0.34 -0.01 -0.16
  285 11.59  8.35  9.97  3.24  9.67 -0.27 -0.21 -0.13  0.11  0.40  0.76  0.97  0.95  0.69  0.38  0.06 -0.09
  286 11.42  8.27  9.85  3.15  9.54 -0.22 -0.16 -0.11  0.12  0.40  0.74  0.93  0.92  0.66  0.37  0.06 -0.09
  287 11.27  8.25  9.76  3.02  9.43 -0.21 -0.14 -0.07  0.15  0.43  0.77  0.94  0.94  0.68  0.41  0.10 -0.03
  288 11.02  8.07  9.55  2.95  9.19 -0.21 -0.13 -0.07  0.16  0.45  0.82  0.97  0.98  0.72  0.44  0.15  0.01
  289 10.80  7.84  9.32  2.96  8.97 -0.19 -0.11 -0.04  0.16  0.48  0.80  0.94  0.94  0.70  0.42  0.12 -0.01
  290 10.62  7.67  9.15  2.95  8.82 -0.18 -0.11 -0.06  0.15  0.46  0.76  0.91  0.91  0.67  0.39  0.08 -0.05
  291 10.52  7.51  9.02  3.01  8.66 -0.21 -0.14 -0.06  0.15  0.49  0.80  0.95  0.95  0.73  0.44  0.13 -0.01
  292 10.42  7.35  8.89  3.07  8.56 -0.18 -0.11 -0.05  0.17  0.48  0.78  0.91  0.91  0.68  0.39  0.05 -0.13
  293 10.31  7.45  8.88  2.86  8.52 -0.19 -0.11 -0.02  0.19  0.49  0.79  0.91  0.93  0.73  0.47  0.15 -0.01
  294 10.13  7.32  8.73  2.81  8.35 -0.16 -0.08  0.00  0.20  0.50  0.75  0.91  0.95  0.77  0.51  0.19  0.02
  295  9.89  7.08  8.49  2.81  8.13 -0.16 -0.10 -0.01  0.19  0.49  0.73  0.89  0.93  0.76  0.48  0.16 -0.02
  296  9.81  6.98  8.40  2.83  8.05 -0.13 -0.08  0.01  0.19  0.48  0.71  0.87  0.91  0.74  0.44  0.12 -0.06
  297  9.68  6.99  8.34  2.69  7.98 -0.13 -0.07  0.02  0.19  0.47  0.66  0.85  0.90  0.74  0.47  0.17 -0.01
  298  9.55  6.83  8.19  2.72  7.83 -0.14 -0.08  0.01  0.21  0.48  0.68  0.87  0.93  0.76  0.49  0.19  0.00
  299  9.40  6.69  8.05  2.71  7.67 -0.15 -0.10  0.01  0.20  0.49  0.68  0.86  0.93  0.78  0.53  0.23  0.04
  300  9.28  6.47  7.88  2.81  7.53 -0.15 -0.09  0.01  0.21  0.48  0.66  0.83  0.90  0.74  0.45  0.14 -0.07
  301  9.23  6.48  7.85  2.75  7.49 -0.16 -0.09  0.01  0.22  0.49  0.68  0.86  0.94  0.79  0.50  0.17 -0.03
  302  9.23  6.45  7.84  2.78  7.48 -0.14 -0.08  0.03  0.24  0.49  0.67  0.83  0.93  0.78  0.49  0.16 -0.05
  303  9.25  6.44  7.85  2.81  7.49 -0.16 -0.11  0.01  0.22  0.48  0.65  0.84  0.93  0.79  0.51  0.17 -0.05
  304  9.21  6.40  7.81  2.81  7.44 -0.17 -0.12 -0.01  0.22  0.49  0.68  0.85  0.95  0.81  0.53  0.18 -0.04
  305  9.10  6.35  7.73  2.75  7.36 -0.17 -0.12  0.00  0.23  0.50  0.68  0.86  0.96  0.81  0.53  0.19 -0.03
  306  8.93  6.24  7.59  2.69  7.23 -0.18 -0.11  0.00  0.22  0.51  0.68  0.84  0.92  0.78  0.49  0.15 -0.06
  307  8.78  6.13  7.45  2.65  7.08 -0.20 -0.13 -0.01  0.22  0.51  0.70  0.88  0.95  0.82  0.53  0.20  0.01
  308  8.63  5.88  7.26  2.75  6.90 -0.19 -0.16  0.00  0.24  0.51  0.70  0.86  0.93  0.78  0.50  0.17 -0.02
  309  8.47  5.70  7.09  2.77  6.73 -0.20 -0.18 -0.01  0.23  0.52  0.72  0.85  0.91  0.77  0.49  0.18 -0.01
  310  8.35  5.56  6.95  2.79  6.60 -0.20 -0.18 -0.02  0.23  0.52  0.72  0.85  0.91  0.76  0.49  0.17 -0.02
  311  8.24  5.41  6.82  2.83  6.50 -0.21 -0.20 -0.06  0.21  0.49  0.70  0.81  0.87  0.72  0.46  0.13 -0.07
  312  8.17  5.39  6.78  2.78  6.48 -0.20 -0.20 -0.08  0.20  0.47  0.68  0.77  0.82  0.68  0.41  0.12 -0.07
  313  8.15  5.36  6.76  2.79  6.47 -0.20 -0.20 -0.06  0.20  0.45  0.66  0.74  0.80  0.65  0.39  0.09 -0.07
  314  8.08  5.36  6.72  2.72  6.44 -0.22 -0.21 -0.07  0.19  0.44  0.65  0.74  0.79  0.66  0.39  0.11 -0.06
  315  8.06  5.40  6.73  2.66  6.42 -0.19 -0.20 -0.06  0.21  0.46  0.67  0.76  0.80  0.68  0.44  0.17  0.00
  316  7.92  5.25  6.59  2.67  6.29 -0.22 -0.22 -0.07  0.20  0.46  0.65  0.74  0.77  0.64  0.44  0.15  0.01
  317  7.65  5.05  6.35  2.60  6.05 -0.24 -0.24 -0.09  0.19  0.45  0.65  0.77  0.79  0.67  0.48  0.18  0.04
  318  7.42  4.80  6.11  2.62  5.84 -0.22 -0.24 -0.09  0.19  0.43  0.62  0.72  0.75  0.63  0.43  0.09 -0.04
  319  7.30  4.73  6.02  2.57  5.75 -0.20 -0.23 -0.08  0.18  0.42  0.60  0.66  0.74  0.62  0.42  0.10 -0.03
  320  7.19  4.69  5.94  2.50  5.67 -0.21 -0.24 -0.09  0.18  0.42  0.60  0.66  0.73  0.62  0.45  0.12 -0.03
  321  7.11  4.66  5.89  2.45  5.64 -0.18 -0.23 -0.10  0.16  0.39  0.55  0.61  0.69  0.59  0.42  0.11 -0.03
  322  7.06  4.72  5.89  2.34  5.63 -0.17 -0.22 -0.08  0.19  0.40  0.54  0.61  0.68  0.58  0.44  0.13 -0.01
  323  6.93  4.66  5.80  2.27  5.56 -0.18 -0.20 -0.10  0.14  0.35  0.49  0.56  0.65  0.57  0.43  0.11 -0.03
  324  6.82  4.62  5.72  2.20  5.51 -0.19 -0.21 -0.11  0.12  0.33  0.47  0.54  0.62  0.54  0.39  0.08 -0.06
  325  6.77  4.62  5.69  2.15  5.49 -0.20 -0.23 -0.12  0.11  0.32  0.47  0.53  0.62  0.55  0.39  0.08 -0.07
  326  6.71  4.61  5.66  2.10  5.44 -0.21 -0.23 -0.12  0.12  0.33  0.47  0.55  0.63  0.58  0.41  0.12 -0.04
  327  6.56  4.45  5.51  2.11  5.28 -0.25 -0.25 -0.13  0.11  0.32  0.48  0.57  0.66  0.62  0.47  0.14 -0.01
  328  6.36  4.22  5.29  2.14  5.07 -0.26 -0.26 -0.13  0.12  0.34  0.48  0.56  0.65  0.59  0.44  0.11 -0.06
  329  6.12  3.99  5.05  2.13  4.85 -0.30 -0.28 -0.14  0.11  0.33  0.47  0.54  0.64  0.58  0.45  0.11 -0.07
  330  5.86  3.73  4.80  2.13  4.59 -0.30 -0.28 -0.14  0.11  0.34  0.49  0.55  0.66  0.59  0.42  0.11 -0.07
  331  5.70  3.51  4.61  2.19  4.40 -0.26 -0.25 -0.12  0.12  0.34  0.50  0.54  0.68  0.59  0.38  0.08 -0.11
  332  5.67  3.47  4.57  2.20  4.34 -0.22 -0.21 -0.08  0.17  0.39  0.53  0.57  0.68  0.60  0.39  0.09 -0.11
  333  5.58  3.46  4.52  2.12  4.26 -0.21 -0.19 -0.07  0.18  0.39  0.54  0.57  0.67  0.62  0.43  0.16 -0.03
  334  5.35  3.29  4.32  2.06  4.07 -0.24 -0.20 -0.10  0.16  0.37  0.50  0.60  0.68  0.63  0.44  0.18 -0.03
  335  5.21  3.08  4.14  2.13  3.87 -0.21 -0.19 -0.08  0.17  0.38  0.52  0.63  0.72  0.68  0.47  0.22  0.03
  336  5.05  2.89  3.97  2.16  3.66 -0.19 -0.16 -0.04  0.21  0.41  0.56  0.65  0.75  0.72  0.52  0.26  0.07
  337  4.82  2.66  3.74  2.16  3.44 -0.16 -0.14 -0.05  0.19  0.39  0.52  0.62  0.72  0.70  0.49  0.24  0.05
  338  4.70  2.49  3.59  2.21  3.29 -0.14 -0.14 -0.06  0.20  0.40  0.53  0.61  0.72  0.69  0.50  0.25  0.05
  339  4.62  2.43  3.53  2.19  3.18 -0.12 -0.11 -0.01  0.25  0.43  0.57  0.65  0.76  0.73  0.56  0.30  0.10
  340  4.46  2.29  3.38  2.17  3.04 -0.12 -0.11 -0.01  0.25  0.43  0.56  0.62  0.74  0.71  0.55  0.29  0.10
  341  4.28  2.16  3.22  2.12  2.88 -0.09 -0.09  0.00  0.24  0.43  0.55  0.62  0.73  0.70  0.56  0.31  0.14
  342  4.23  2.03  3.13  2.20  2.80 -0.06 -0.07  0.01  0.24  0.44  0.55  0.60  0.72  0.67  0.53  0.27  0.09
  343  4.22  2.13  3.17  2.09  2.83 -0.07 -0.05  0.03  0.23  0.44  0.56  0.60  0.71  0.69  0.56  0.31  0.14
  344  4.24  2.17  3.20  2.07  2.85 -0.03 -0.03  0.05  0.25  0.43  0.56  0.61  0.72  0.69  0.57  0.31  0.15
  345  4.20  2.20  3.20  2.00  2.87 -0.04 -0.04  0.03  0.22  0.38  0.50  0.56  0.67  0.65  0.55  0.29  0.13
  346  4.15  2.25  3.20  1.90  2.88 -0.07 -0.06  0.03  0.22  0.38  0.50  0.56  0.65  0.63  0.55  0.32  0.15
  347  4.10  2.28  3.19  1.82  2.89 -0.05 -0.05  0.03  0.20  0.37  0.45  0.52  0.62  0.60  0.52  0.30  0.14
  348  4.09  2.27  3.18  1.82  2.92 -0.08 -0.06  0.02  0.19  0.35  0.43  0.47  0.57  0.54  0.44  0.23  0.09
  349  4.09  2.32  3.20  1.77  2.94 -0.09 -0.08  0.01  0.18  0.34  0.43  0.47  0.55  0.53  0.45  0.24  0.13
  350  4.10  2.29  3.19  1.81  2.99 -0.09 -0.09 -0.01  0.15  0.29  0.37  0.40  0.48  0.44  0.37  0.15  0.02
  351  4.17  2.43  3.30  1.74  3.08 -0.10 -0.10 -0.01  0.15  0.29  0.38  0.43  0.50  0.47  0.39  0.19  0.06
  352  4.24  2.50  3.37  1.74  3.16 -0.09 -0.10 -0.01  0.15  0.29  0.37  0.41  0.47  0.43  0.34  0.15  0.03
  353  4.33  2.68  3.51  1.65  3.29 -0.08 -0.09  0.01  0.16  0.30  0.39  0.42  0.47  0.44  0.36  0.17  0.05
  354  4.41  2.79  3.60  1.62  3.40 -0.09 -0.11 -0.02  0.14  0.27  0.36  0.39  0.46  0.42  0.34  0.14  0.03
  355  4.52  2.90  3.71  1.62  3.58 -0.09 -0.12 -0.07  0.08  0.19  0.28  0.33  0.37  0.33  0.26  0.08 -0.04
  356  4.72  3.15  3.93  1.57  3.79 -0.11 -0.13 -0.07  0.09  0.20  0.30  0.34  0.38  0.34  0.27  0.10 -0.01
  357  4.77  3.33  4.05  1.44  3.88 -0.12 -0.13 -0.07  0.10  0.20  0.30  0.35  0.41  0.41  0.32  0.16  0.07
  358  4.86  3.32  4.09  1.54  3.94 -0.06 -0.11 -0.07  0.11  0.19  0.27  0.33  0.39  0.37  0.26  0.11 -0.01
  359  4.94  3.41  4.18  1.53  4.06 -0.09 -0.12 -0.09  0.08  0.16  0.25  0.30  0.34  0.32  0.22  0.07 -0.03
  360  5.01  3.46  4.24  1.55  4.14 -0.12 -0.15 -0.11  0.06  0.14  0.23  0.29  0.32  0.30  0.20  0.06 -0.07
  361  5.13  3.59  4.36  1.54  4.25 -0.11 -0.14 -0.11  0.05  0.15  0.25  0.28  0.33  0.32  0.23  0.08 -0.05
  362  5.22  3.71  4.47  1.51  4.37 -0.11 -0.14 -0.13  0.04  0.12  0.24  0.28  0.32  0.32  0.23  0.07 -0.06
  363  5.36  3.90  4.63  1.46  4.49 -0.09 -0.12 -0.10  0.07  0.16  0.28  0.32  0.37  0.37  0.30  0.14  0.00
  364  5.55  4.07  4.81  1.48  4.66 -0.04 -0.08 -0.07  0.09  0.17  0.29  0.32  0.37  0.37  0.29  0.13 -0.01
  365  5.65  4.22  4.93  1.43  4.76 -0.09 -0.10 -0.07  0.11  0.20  0.33  0.36  0.39  0.39  0.34  0.17  0.05
  366  5.65  4.22  4.93  1.43  4.76 -0.09 -0.10 -0.07  0.11  0.20  0.33  0.36  0.39  0.39  0.34  0.17  0.05
